
Gurobi 7.0.2 (linux64, Python) logging started Wed Jul  5 10:50:03 2017

Parameter OutputFlag unchanged
   Value: 1  Min: 0  Max: 1  Default: 1
Changed value of parameter QCPDual to 1
   Prev: 0  Min: 0  Max: 1  Default: 0
Optimize a model with 4 rows, 4 columns and 4 nonzeros
Variable types: 3 continuous, 1 integer (1 binary)
Coefficient statistics:
  Matrix range     [1e+00, 1e+00]
  Objective range  [1e+00, 1e+00]
  Bounds range     [1e+00, 1e+00]
  RHS range        [2e+00, 2e+00]
Found heuristic solution: objective 4
Presolve removed 4 rows and 4 columns
Presolve time: 0.01s
Presolve: All rows and columns removed

Explored 0 nodes (0 simplex iterations) in 0.01 seconds
Thread count was 1 (of 8 available processors)

Solution count 1: 4 
Pool objective bound 4

Optimal solution found (tolerance 1.00e-04)
Best objective 4.000000000000e+00, best bound 4.000000000000e+00, gap 0.0000%

Gurobi 7.0.2 (linux64, Python) logging started Wed Jul  5 10:52:32 2017

Parameter OutputFlag unchanged
   Value: 1  Min: 0  Max: 1  Default: 1
Changed value of parameter QCPDual to 1
   Prev: 0  Min: 0  Max: 1  Default: 0
Optimize a model with 4 rows, 4 columns and 4 nonzeros
Variable types: 3 continuous, 1 integer (1 binary)
Coefficient statistics:
  Matrix range     [1e+00, 1e+00]
  Objective range  [1e+00, 1e+00]
  Bounds range     [1e+00, 1e+00]
  RHS range        [2e+00, 2e+00]
Found heuristic solution: objective 4
Presolve removed 4 rows and 4 columns
Presolve time: 0.00s
Presolve: All rows and columns removed

Explored 0 nodes (0 simplex iterations) in 0.00 seconds
Thread count was 1 (of 8 available processors)

Solution count 1: 4 
Pool objective bound 4

Optimal solution found (tolerance 1.00e-04)
Best objective 4.000000000000e+00, best bound 4.000000000000e+00, gap 0.0000%

Gurobi 7.0.2 (linux64, Python) logging started Wed Jul  5 10:59:46 2017

Parameter OutputFlag unchanged
   Value: 1  Min: 0  Max: 1  Default: 1
Changed value of parameter QCPDual to 1
   Prev: 0  Min: 0  Max: 1  Default: 0
Optimize a model with 4 rows, 4 columns and 4 nonzeros
Variable types: 3 continuous, 1 integer (1 binary)
Coefficient statistics:
  Matrix range     [1e+00, 1e+00]
  Objective range  [1e+00, 1e+00]
  Bounds range     [1e+00, 1e+00]
  RHS range        [2e+00, 2e+00]
Found heuristic solution: objective 4
Presolve removed 4 rows and 4 columns
Presolve time: 0.00s
Presolve: All rows and columns removed

Explored 0 nodes (0 simplex iterations) in 0.00 seconds
Thread count was 1 (of 8 available processors)

Solution count 1: 4 
Pool objective bound 4

Optimal solution found (tolerance 1.00e-04)
Best objective 4.000000000000e+00, best bound 4.000000000000e+00, gap 0.0000%

Gurobi 7.0.2 (linux64, Python) logging started Wed Jul  5 11:54:13 2017


Gurobi 7.0.2 (linux64, Python) logging started Wed Jul  5 11:54:40 2017

Parameter OutputFlag unchanged
   Value: 1  Min: 0  Max: 1  Default: 1
Changed value of parameter QCPDual to 1
   Prev: 0  Min: 0  Max: 1  Default: 0
Optimize a model with 4 rows, 4 columns and 4 nonzeros
Variable types: 3 continuous, 1 integer (1 binary)
Coefficient statistics:
  Matrix range     [1e+00, 1e+00]
  Objective range  [1e+00, 1e+00]
  Bounds range     [1e+00, 1e+00]
  RHS range        [2e+00, 2e+00]
Found heuristic solution: objective 4
Presolve removed 4 rows and 4 columns
Presolve time: 0.00s
Presolve: All rows and columns removed

Explored 0 nodes (0 simplex iterations) in 0.00 seconds
Thread count was 1 (of 8 available processors)

Solution count 1: 4 
Pool objective bound 4

Optimal solution found (tolerance 1.00e-04)
Best objective 4.000000000000e+00, best bound 4.000000000000e+00, gap 0.0000%

Gurobi 7.0.2 (linux64, Python) logging started Wed Jul  5 12:05:39 2017

Parameter OutputFlag unchanged
   Value: 1  Min: 0  Max: 1  Default: 1
Changed value of parameter QCPDual to 1
   Prev: 0  Min: 0  Max: 1  Default: 0
Optimize a model with 4 rows, 4 columns and 4 nonzeros
Variable types: 3 continuous, 1 integer (1 binary)
Coefficient statistics:
  Matrix range     [1e+00, 1e+00]
  Objective range  [1e+00, 1e+00]
  Bounds range     [1e+00, 1e+00]
  RHS range        [2e+00, 2e+00]
Found heuristic solution: objective 4
Presolve removed 4 rows and 4 columns
Presolve time: 0.00s
Presolve: All rows and columns removed

Explored 0 nodes (0 simplex iterations) in 0.00 seconds
Thread count was 1 (of 8 available processors)

Solution count 1: 4 
Pool objective bound 4

Optimal solution found (tolerance 1.00e-04)
Best objective 4.000000000000e+00, best bound 4.000000000000e+00, gap 0.0000%

Gurobi 7.0.2 (linux64, Python) logging started Wed Jul  5 12:16:18 2017

Parameter OutputFlag unchanged
   Value: 1  Min: 0  Max: 1  Default: 1
Changed value of parameter QCPDual to 1
   Prev: 0  Min: 0  Max: 1  Default: 0
Optimize a model with 4 rows, 4 columns and 4 nonzeros
Variable types: 3 continuous, 1 integer (1 binary)
Coefficient statistics:
  Matrix range     [1e+00, 1e+00]
  Objective range  [1e+00, 1e+00]
  Bounds range     [1e+00, 1e+00]
  RHS range        [2e+00, 2e+00]
Found heuristic solution: objective 4
Presolve removed 4 rows and 4 columns
Presolve time: 0.00s
Presolve: All rows and columns removed

Explored 0 nodes (0 simplex iterations) in 0.00 seconds
Thread count was 1 (of 8 available processors)

Solution count 1: 4 
Pool objective bound 4

Optimal solution found (tolerance 1.00e-04)
Best objective 4.000000000000e+00, best bound 4.000000000000e+00, gap 0.0000%

Gurobi 7.0.2 (linux64, Python) logging started Wed Jul  5 12:16:56 2017

Parameter OutputFlag unchanged
   Value: 1  Min: 0  Max: 1  Default: 1
Changed value of parameter QCPDual to 1
   Prev: 0  Min: 0  Max: 1  Default: 0
Optimize a model with 4 rows, 4 columns and 4 nonzeros
Variable types: 3 continuous, 1 integer (1 binary)
Coefficient statistics:
  Matrix range     [1e+00, 1e+00]
  Objective range  [1e+00, 1e+00]
  Bounds range     [1e+00, 1e+00]
  RHS range        [2e+00, 2e+00]
Found heuristic solution: objective 4
Presolve removed 4 rows and 4 columns
Presolve time: 0.00s
Presolve: All rows and columns removed

Explored 0 nodes (0 simplex iterations) in 0.00 seconds
Thread count was 1 (of 8 available processors)

Solution count 1: 4 
Pool objective bound 4

Optimal solution found (tolerance 1.00e-04)
Best objective 4.000000000000e+00, best bound 4.000000000000e+00, gap 0.0000%

Gurobi 7.0.2 (linux64, Python) logging started Wed Jul  5 12:18:15 2017

Parameter OutputFlag unchanged
   Value: 1  Min: 0  Max: 1  Default: 1
Changed value of parameter QCPDual to 1
   Prev: 0  Min: 0  Max: 1  Default: 0
Optimize a model with 4 rows, 4 columns and 4 nonzeros
Variable types: 3 continuous, 1 integer (1 binary)
Coefficient statistics:
  Matrix range     [1e+00, 1e+00]
  Objective range  [1e+00, 1e+00]
  Bounds range     [1e+00, 1e+00]
  RHS range        [2e+00, 2e+00]
Found heuristic solution: objective 4
Presolve removed 4 rows and 4 columns
Presolve time: 0.00s
Presolve: All rows and columns removed

Explored 0 nodes (0 simplex iterations) in 0.00 seconds
Thread count was 1 (of 8 available processors)

Solution count 1: 4 
Pool objective bound 4

Optimal solution found (tolerance 1.00e-04)
Best objective 4.000000000000e+00, best bound 4.000000000000e+00, gap 0.0000%

Gurobi 7.0.2 (linux64, Python) logging started Wed Jul  5 12:18:57 2017

Parameter OutputFlag unchanged
   Value: 1  Min: 0  Max: 1  Default: 1
Changed value of parameter QCPDual to 1
   Prev: 0  Min: 0  Max: 1  Default: 0
Optimize a model with 4 rows, 4 columns and 4 nonzeros
Variable types: 3 continuous, 1 integer (1 binary)
Coefficient statistics:
  Matrix range     [1e+00, 1e+00]
  Objective range  [1e+00, 1e+00]
  Bounds range     [1e+00, 1e+00]
  RHS range        [2e+00, 2e+00]
Found heuristic solution: objective 4
Presolve removed 4 rows and 4 columns
Presolve time: 0.00s
Presolve: All rows and columns removed

Explored 0 nodes (0 simplex iterations) in 0.00 seconds
Thread count was 1 (of 8 available processors)

Solution count 1: 4 
Pool objective bound 4

Optimal solution found (tolerance 1.00e-04)
Best objective 4.000000000000e+00, best bound 4.000000000000e+00, gap 0.0000%

Gurobi 7.0.2 (linux64, Python) logging started Wed Jul  5 12:23:21 2017

Parameter OutputFlag unchanged
   Value: 1  Min: 0  Max: 1  Default: 1
Changed value of parameter QCPDual to 1
   Prev: 0  Min: 0  Max: 1  Default: 0
Optimize a model with 4 rows, 4 columns and 4 nonzeros
Variable types: 3 continuous, 1 integer (1 binary)
Coefficient statistics:
  Matrix range     [1e+00, 1e+00]
  Objective range  [1e+00, 1e+00]
  Bounds range     [1e+00, 1e+00]
  RHS range        [2e+00, 2e+00]
Found heuristic solution: objective 4
Presolve removed 4 rows and 4 columns
Presolve time: 0.00s
Presolve: All rows and columns removed

Explored 0 nodes (0 simplex iterations) in 0.00 seconds
Thread count was 1 (of 8 available processors)

Solution count 1: 4 
Pool objective bound 4

Optimal solution found (tolerance 1.00e-04)
Best objective 4.000000000000e+00, best bound 4.000000000000e+00, gap 0.0000%

Gurobi 7.0.2 (linux64, Python) logging started Wed Jul  5 12:33:13 2017

Parameter OutputFlag unchanged
   Value: 1  Min: 0  Max: 1  Default: 1
Changed value of parameter QCPDual to 1
   Prev: 0  Min: 0  Max: 1  Default: 0
Optimize a model with 4 rows, 4 columns and 4 nonzeros
Variable types: 3 continuous, 1 integer (1 binary)
Coefficient statistics:
  Matrix range     [1e+00, 1e+00]
  Objective range  [1e+00, 1e+00]
  Bounds range     [1e+00, 1e+00]
  RHS range        [2e+00, 2e+00]
Found heuristic solution: objective 4
Presolve removed 4 rows and 4 columns
Presolve time: 0.00s
Presolve: All rows and columns removed

Explored 0 nodes (0 simplex iterations) in 0.00 seconds
Thread count was 1 (of 8 available processors)

Solution count 1: 4 
Pool objective bound 4

Optimal solution found (tolerance 1.00e-04)
Best objective 4.000000000000e+00, best bound 4.000000000000e+00, gap 0.0000%

Gurobi 7.0.2 (linux64, Python) logging started Wed Jul  5 12:34:09 2017

Parameter OutputFlag unchanged
   Value: 1  Min: 0  Max: 1  Default: 1
Changed value of parameter QCPDual to 1
   Prev: 0  Min: 0  Max: 1  Default: 0
Optimize a model with 4 rows, 4 columns and 4 nonzeros
Variable types: 3 continuous, 1 integer (1 binary)
Coefficient statistics:
  Matrix range     [1e+00, 1e+00]
  Objective range  [1e+00, 1e+00]
  Bounds range     [1e+00, 1e+00]
  RHS range        [2e+00, 2e+00]
Found heuristic solution: objective 4
Presolve removed 4 rows and 4 columns
Presolve time: 0.00s
Presolve: All rows and columns removed

Explored 0 nodes (0 simplex iterations) in 0.00 seconds
Thread count was 1 (of 8 available processors)

Solution count 1: 4 
Pool objective bound 4

Optimal solution found (tolerance 1.00e-04)
Best objective 4.000000000000e+00, best bound 4.000000000000e+00, gap 0.0000%

Gurobi 7.0.2 (linux64, Python) logging started Wed Jul  5 12:38:21 2017

Parameter OutputFlag unchanged
   Value: 1  Min: 0  Max: 1  Default: 1
Changed value of parameter QCPDual to 1
   Prev: 0  Min: 0  Max: 1  Default: 0
Optimize a model with 4 rows, 4 columns and 4 nonzeros
Variable types: 3 continuous, 1 integer (1 binary)
Coefficient statistics:
  Matrix range     [1e+00, 1e+00]
  Objective range  [1e+00, 1e+00]
  Bounds range     [1e+00, 1e+00]
  RHS range        [2e+00, 2e+00]
Found heuristic solution: objective 4
Presolve removed 4 rows and 4 columns
Presolve time: 0.00s
Presolve: All rows and columns removed

Explored 0 nodes (0 simplex iterations) in 0.00 seconds
Thread count was 1 (of 8 available processors)

Solution count 1: 4 
Pool objective bound 4

Optimal solution found (tolerance 1.00e-04)
Best objective 4.000000000000e+00, best bound 4.000000000000e+00, gap 0.0000%

Gurobi 7.0.2 (linux64, Python) logging started Wed Jul  5 12:40:48 2017

Parameter OutputFlag unchanged
   Value: 1  Min: 0  Max: 1  Default: 1
Changed value of parameter QCPDual to 1
   Prev: 0  Min: 0  Max: 1  Default: 0
Optimize a model with 4 rows, 4 columns and 4 nonzeros
Variable types: 3 continuous, 1 integer (1 binary)
Coefficient statistics:
  Matrix range     [1e+00, 1e+00]
  Objective range  [1e+00, 1e+00]
  Bounds range     [1e+00, 1e+00]
  RHS range        [2e+00, 2e+00]
Found heuristic solution: objective 4
Presolve removed 4 rows and 4 columns
Presolve time: 0.00s
Presolve: All rows and columns removed

Explored 0 nodes (0 simplex iterations) in 0.00 seconds
Thread count was 1 (of 8 available processors)

Solution count 1: 4 
Pool objective bound 4

Optimal solution found (tolerance 1.00e-04)
Best objective 4.000000000000e+00, best bound 4.000000000000e+00, gap 0.0000%

Gurobi 7.0.2 (linux64, Python) logging started Wed Jul  5 12:41:10 2017

Parameter OutputFlag unchanged
   Value: 1  Min: 0  Max: 1  Default: 1
Changed value of parameter QCPDual to 1
   Prev: 0  Min: 0  Max: 1  Default: 0
Optimize a model with 4 rows, 4 columns and 4 nonzeros
Variable types: 3 continuous, 1 integer (1 binary)
Coefficient statistics:
  Matrix range     [1e+00, 1e+00]
  Objective range  [1e+00, 1e+00]
  Bounds range     [1e+00, 1e+00]
  RHS range        [2e+00, 2e+00]
Found heuristic solution: objective 4
Presolve removed 4 rows and 4 columns
Presolve time: 0.00s
Presolve: All rows and columns removed

Explored 0 nodes (0 simplex iterations) in 0.00 seconds
Thread count was 1 (of 8 available processors)

Solution count 1: 4 
Pool objective bound 4

Optimal solution found (tolerance 1.00e-04)
Best objective 4.000000000000e+00, best bound 4.000000000000e+00, gap 0.0000%

Gurobi 7.0.2 (linux64, Python) logging started Wed Jul  5 12:42:28 2017

Parameter OutputFlag unchanged
   Value: 1  Min: 0  Max: 1  Default: 1
Changed value of parameter QCPDual to 1
   Prev: 0  Min: 0  Max: 1  Default: 0
Optimize a model with 4 rows, 4 columns and 4 nonzeros
Variable types: 3 continuous, 1 integer (1 binary)
Coefficient statistics:
  Matrix range     [1e+00, 1e+00]
  Objective range  [1e+00, 1e+00]
  Bounds range     [1e+00, 1e+00]
  RHS range        [2e+00, 2e+00]
Found heuristic solution: objective 4
Presolve removed 4 rows and 4 columns
Presolve time: 0.00s
Presolve: All rows and columns removed

Explored 0 nodes (0 simplex iterations) in 0.00 seconds
Thread count was 1 (of 8 available processors)

Solution count 1: 4 
Pool objective bound 4

Optimal solution found (tolerance 1.00e-04)
Best objective 4.000000000000e+00, best bound 4.000000000000e+00, gap 0.0000%

Gurobi 7.0.2 (linux64, Python) logging started Wed Jul  5 14:02:26 2017

Parameter OutputFlag unchanged
   Value: 1  Min: 0  Max: 1  Default: 1
Changed value of parameter QCPDual to 1
   Prev: 0  Min: 0  Max: 1  Default: 0
Optimize a model with 4 rows, 4 columns and 4 nonzeros
Variable types: 3 continuous, 1 integer (1 binary)
Coefficient statistics:
  Matrix range     [1e+00, 1e+00]
  Objective range  [1e+00, 1e+00]
  Bounds range     [1e+00, 1e+00]
  RHS range        [2e+00, 2e+00]
Found heuristic solution: objective 4
Presolve removed 4 rows and 4 columns
Presolve time: 0.00s
Presolve: All rows and columns removed

Explored 0 nodes (0 simplex iterations) in 0.00 seconds
Thread count was 1 (of 8 available processors)

Solution count 1: 4 
Pool objective bound 4

Optimal solution found (tolerance 1.00e-04)
Best objective 4.000000000000e+00, best bound 4.000000000000e+00, gap 0.0000%

Gurobi 7.0.2 (linux64, Python) logging started Wed Jul  5 17:05:01 2017

Parameter OutputFlag unchanged
   Value: 1  Min: 0  Max: 1  Default: 1
Changed value of parameter QCPDual to 1
   Prev: 0  Min: 0  Max: 1  Default: 0
Optimize a model with 4 rows, 4 columns and 4 nonzeros
Variable types: 3 continuous, 1 integer (1 binary)
Coefficient statistics:
  Matrix range     [1e+00, 1e+00]
  Objective range  [1e+00, 1e+00]
  Bounds range     [1e+00, 1e+00]
  RHS range        [2e+00, 2e+00]
Found heuristic solution: objective 4
Presolve removed 4 rows and 4 columns
Presolve time: 0.00s
Presolve: All rows and columns removed

Explored 0 nodes (0 simplex iterations) in 0.00 seconds
Thread count was 1 (of 8 available processors)

Solution count 1: 4 
Pool objective bound 4

Optimal solution found (tolerance 1.00e-04)
Best objective 4.000000000000e+00, best bound 4.000000000000e+00, gap 0.0000%

Gurobi 7.0.2 (linux64, Python) logging started Wed Jul  5 17:06:43 2017

Parameter OutputFlag unchanged
   Value: 1  Min: 0  Max: 1  Default: 1
Changed value of parameter QCPDual to 1
   Prev: 0  Min: 0  Max: 1  Default: 0
Optimize a model with 4 rows, 4 columns and 4 nonzeros
Variable types: 3 continuous, 1 integer (1 binary)
Coefficient statistics:
  Matrix range     [1e+00, 1e+00]
  Objective range  [1e+00, 1e+00]
  Bounds range     [1e+00, 1e+00]
  RHS range        [2e+00, 2e+00]
Found heuristic solution: objective 4
Presolve removed 4 rows and 4 columns
Presolve time: 0.00s
Presolve: All rows and columns removed

Explored 0 nodes (0 simplex iterations) in 0.00 seconds
Thread count was 1 (of 8 available processors)

Solution count 1: 4 
Pool objective bound 4

Optimal solution found (tolerance 1.00e-04)
Best objective 4.000000000000e+00, best bound 4.000000000000e+00, gap 0.0000%

Gurobi 7.0.2 (linux64, Python) logging started Wed Jul  5 17:15:08 2017

Parameter OutputFlag unchanged
   Value: 1  Min: 0  Max: 1  Default: 1
Changed value of parameter QCPDual to 1
   Prev: 0  Min: 0  Max: 1  Default: 0
Optimize a model with 4 rows, 4 columns and 4 nonzeros
Variable types: 3 continuous, 1 integer (1 binary)
Coefficient statistics:
  Matrix range     [1e+00, 1e+00]
  Objective range  [1e+00, 1e+00]
  Bounds range     [1e+00, 1e+00]
  RHS range        [2e+00, 2e+00]
Found heuristic solution: objective 4
Presolve removed 4 rows and 4 columns
Presolve time: 0.00s
Presolve: All rows and columns removed

Explored 0 nodes (0 simplex iterations) in 0.00 seconds
Thread count was 1 (of 8 available processors)

Solution count 1: 4 
Pool objective bound 4

Optimal solution found (tolerance 1.00e-04)
Best objective 4.000000000000e+00, best bound 4.000000000000e+00, gap 0.0000%

Gurobi 7.0.2 (linux64, Python) logging started Mon Jul 17 14:24:45 2017


Gurobi 7.0.2 (linux64, Python) logging started Mon Jul 17 14:27:01 2017


Gurobi 7.0.2 (linux64, Python) logging started Mon Jul 17 14:27:17 2017


Gurobi 7.0.2 (linux64, Python) logging started Mon Jul 17 14:27:50 2017


Gurobi 7.0.2 (linux64, Python) logging started Mon Jul 17 14:29:11 2017


Gurobi 7.0.2 (linux64, Python) logging started Mon Jul 17 14:31:10 2017


Gurobi 7.0.2 (linux64, Python) logging started Mon Jul 17 14:38:18 2017


Gurobi 7.0.2 (linux64, Python) logging started Mon Jul 17 14:45:02 2017


Gurobi 7.0.2 (linux64, Python) logging started Mon Jul 17 14:45:20 2017


Gurobi 7.0.2 (linux64, Python) logging started Mon Jul 17 14:45:51 2017


Gurobi 7.0.2 (linux64, Python) logging started Mon Jul 17 14:46:09 2017


Gurobi 7.0.2 (linux64, Python) logging started Mon Jul 17 14:46:24 2017


Gurobi 7.0.2 (linux64, Python) logging started Mon Jul 17 14:47:00 2017


Gurobi 7.0.2 (linux64, Python) logging started Mon Jul 17 14:50:31 2017


Gurobi 7.0.2 (linux64, Python) logging started Mon Jul 17 14:57:46 2017


Gurobi 7.0.2 (linux64, Python) logging started Mon Jul 17 14:58:26 2017


Gurobi 7.0.2 (linux64, Python) logging started Mon Jul 17 14:59:13 2017


Gurobi 7.0.2 (linux64, Python) logging started Mon Jul 17 14:59:47 2017


Gurobi 7.0.2 (linux64, Python) logging started Mon Jul 17 15:01:54 2017


Gurobi 7.0.2 (linux64, Python) logging started Mon Jul 17 15:01:56 2017


Gurobi 7.0.2 (linux64, Python) logging started Mon Jul 17 15:02:04 2017


Gurobi 7.0.2 (linux64, Python) logging started Mon Jul 17 15:02:16 2017


Gurobi 7.0.2 (linux64, Python) logging started Mon Jul 17 15:06:11 2017


Gurobi 7.0.2 (linux64, Python) logging started Mon Jul 17 15:10:47 2017


Gurobi 7.0.2 (linux64, Python) logging started Mon Jul 17 15:45:25 2017


Gurobi 7.0.2 (linux64, Python) logging started Tue Jul 18 11:33:43 2017


Gurobi 7.0.2 (linux64, Python) logging started Tue Jul 18 14:14:22 2017


Gurobi 7.0.2 (linux64, Python) logging started Tue Jul 18 16:22:12 2017


Gurobi 7.0.2 (linux64, Python) logging started Tue Jul 18 16:22:22 2017


Gurobi 7.0.2 (linux64, Python) logging started Wed Jul 19 12:19:13 2017


Gurobi 7.0.2 (linux64, Python) logging started Wed Jul 19 13:27:35 2017


Gurobi 7.0.2 (linux64, Python) logging started Wed Jul 19 14:29:02 2017


Gurobi 7.0.2 (linux64, Python) logging started Thu Jul 20 12:09:51 2017


Gurobi 7.0.2 (linux64, Python) logging started Fri Jul 21 11:59:00 2017


Gurobi 7.0.2 (linux64, Python) logging started Fri Jul 21 12:01:36 2017


Gurobi 7.0.2 (linux64, Python) logging started Fri Jul 21 12:13:45 2017


Gurobi 7.0.2 (linux64, Python) logging started Fri Jul 21 12:15:55 2017


Gurobi 7.0.2 (linux64, Python) logging started Fri Jul 21 12:30:57 2017


Gurobi 7.0.2 (linux64, Python) logging started Fri Jul 21 12:32:11 2017


Gurobi 7.0.2 (linux64, Python) logging started Fri Jul 21 12:32:35 2017


Gurobi 7.0.2 (linux64, Python) logging started Fri Jul 21 12:32:46 2017


Gurobi 7.0.2 (linux64, Python) logging started Fri Jul 21 12:35:22 2017


Gurobi 7.0.2 (linux64, Python) logging started Fri Jul 21 14:00:57 2017


Gurobi 7.0.2 (linux64, Python) logging started Fri Jul 21 16:08:03 2017

Parameter OutputFlag unchanged
   Value: 1  Min: 0  Max: 1  Default: 1
Changed value of parameter QCPDual to 1
   Prev: 0  Min: 0  Max: 1  Default: 0
Optimize a model with 4 rows, 4 columns and 4 nonzeros
Variable types: 3 continuous, 1 integer (1 binary)
Coefficient statistics:
  Matrix range     [1e+00, 1e+00]
  Objective range  [1e+00, 1e+00]
  Bounds range     [1e+00, 1e+00]
  RHS range        [2e+00, 2e+00]
Found heuristic solution: objective 4
Presolve removed 4 rows and 4 columns
Presolve time: 0.00s
Presolve: All rows and columns removed

Explored 0 nodes (0 simplex iterations) in 0.01 seconds
Thread count was 1 (of 8 available processors)

Solution count 1: 4 
Pool objective bound 4

Optimal solution found (tolerance 1.00e-04)
Best objective 4.000000000000e+00, best bound 4.000000000000e+00, gap 0.0000%

Gurobi 7.0.2 (linux64, Python) logging started Fri Jul 21 16:10:27 2017


Gurobi 7.0.2 (linux64, Python) logging started Fri Jul 21 16:12:22 2017


Gurobi 7.0.2 (linux64, Python) logging started Tue Jul 25 17:58:28 2017


Gurobi 7.0.2 (linux64, Python) logging started Tue Jul 25 18:04:29 2017


Gurobi 7.0.2 (linux64, Python) logging started Tue Jul 25 18:19:25 2017


Gurobi 7.0.2 (linux64, Python) logging started Thu Jul 27 12:58:15 2017


Gurobi 7.0.2 (linux64, Python) logging started Thu Jul 27 13:03:51 2017


Gurobi 7.0.2 (linux64, Python) logging started Thu Jul 27 21:23:25 2017

Optimize a model with 4 rows, 4 columns and 4 nonzeros
Coefficient statistics:
  Matrix range     [1e+00, 1e+00]
  Objective range  [1e+00, 1e+00]
  Bounds range     [0e+00, 0e+00]
  RHS range        [2e+00, 2e+00]
Presolve removed 4 rows and 4 columns
Presolve time: 0.00s
Presolve: All rows and columns removed
Iteration    Objective       Primal Inf.    Dual Inf.      Time
       0    4.0000000e+00   0.000000e+00   0.000000e+00      0s

Solved in 0 iterations and 0.00 seconds
Optimal objective  4.000000000e+00

Gurobi 7.0.2 (linux64, Python) logging started Fri Jul 28 10:48:11 2017

Optimize a model with 4 rows, 4 columns and 4 nonzeros
Coefficient statistics:
  Matrix range     [1e+00, 1e+00]
  Objective range  [1e+00, 1e+00]
  Bounds range     [0e+00, 0e+00]
  RHS range        [2e+00, 2e+00]
Presolve removed 4 rows and 4 columns
Presolve time: 0.00s
Presolve: All rows and columns removed
Iteration    Objective       Primal Inf.    Dual Inf.      Time
       0    4.0000000e+00   0.000000e+00   0.000000e+00      0s

Solved in 0 iterations and 0.00 seconds
Optimal objective  4.000000000e+00

Gurobi 7.0.2 (linux64, Python) logging started Fri Jul 28 10:58:21 2017

Optimize a model with 4 rows, 4 columns and 4 nonzeros
Coefficient statistics:
  Matrix range     [1e+00, 1e+00]
  Objective range  [1e+00, 1e+00]
  Bounds range     [0e+00, 0e+00]
  RHS range        [2e+00, 2e+00]
Presolve removed 4 rows and 4 columns
Presolve time: 0.00s
Presolve: All rows and columns removed
Iteration    Objective       Primal Inf.    Dual Inf.      Time
       0    4.0000000e+00   0.000000e+00   0.000000e+00      0s

Solved in 0 iterations and 0.00 seconds
Optimal objective  4.000000000e+00

Gurobi 7.0.2 (linux64, Python) logging started Fri Jul 28 11:53:57 2017

Optimize a model with 4 rows, 4 columns and 4 nonzeros
Coefficient statistics:
  Matrix range     [1e+00, 1e+00]
  Objective range  [1e+00, 1e+00]
  Bounds range     [0e+00, 0e+00]
  RHS range        [2e+00, 2e+00]
Presolve removed 4 rows and 4 columns
Presolve time: 0.00s
Presolve: All rows and columns removed
Iteration    Objective       Primal Inf.    Dual Inf.      Time
       0    4.0000000e+00   0.000000e+00   0.000000e+00      0s

Solved in 0 iterations and 0.00 seconds
Optimal objective  4.000000000e+00

Gurobi 7.0.2 (linux64, Python) logging started Fri Jul 28 12:15:08 2017

Optimize a model with 3 rows, 3 columns and 3 nonzeros
Coefficient statistics:
  Matrix range     [1e+00, 1e+00]
  Objective range  [1e+00, 1e+00]
  Bounds range     [0e+00, 0e+00]
  RHS range        [2e+00, 2e+00]
Presolve removed 3 rows and 3 columns
Presolve time: 0.00s
Presolve: All rows and columns removed
Iteration    Objective       Primal Inf.    Dual Inf.      Time
       0    4.0000000e+00   0.000000e+00   0.000000e+00      0s

Solved in 0 iterations and 0.00 seconds
Optimal objective  4.000000000e+00

Gurobi 7.0.2 (linux64, Python) logging started Fri Jul 28 12:25:47 2017

Optimize a model with 3 rows, 3 columns and 3 nonzeros
Coefficient statistics:
  Matrix range     [1e+00, 1e+00]
  Objective range  [1e+00, 1e+00]
  Bounds range     [0e+00, 0e+00]
  RHS range        [2e+00, 2e+00]
Presolve removed 3 rows and 3 columns
Presolve time: 0.00s
Presolve: All rows and columns removed
Iteration    Objective       Primal Inf.    Dual Inf.      Time
       0    4.0000000e+00   0.000000e+00   0.000000e+00      0s

Solved in 0 iterations and 0.00 seconds
Optimal objective  4.000000000e+00

Gurobi 7.0.2 (linux64, Python) logging started Fri Jul 28 12:27:27 2017

Optimize a model with 3 rows, 3 columns and 3 nonzeros
Coefficient statistics:
  Matrix range     [1e+00, 1e+00]
  Objective range  [1e+00, 1e+00]
  Bounds range     [0e+00, 0e+00]
  RHS range        [2e+00, 2e+00]
Presolve removed 3 rows and 3 columns
Presolve time: 0.00s
Presolve: All rows and columns removed
Iteration    Objective       Primal Inf.    Dual Inf.      Time
       0    4.0000000e+00   0.000000e+00   0.000000e+00      0s

Solved in 0 iterations and 0.00 seconds
Optimal objective  4.000000000e+00

Gurobi 7.0.2 (linux64, Python) logging started Fri Jul 28 13:10:49 2017

Optimize a model with 3 rows, 3 columns and 3 nonzeros
Coefficient statistics:
  Matrix range     [1e+00, 1e+00]
  Objective range  [1e+00, 1e+00]
  Bounds range     [0e+00, 0e+00]
  RHS range        [2e+00, 2e+00]
Presolve removed 3 rows and 3 columns
Presolve time: 0.00s
Presolve: All rows and columns removed
Iteration    Objective       Primal Inf.    Dual Inf.      Time
       0    4.0000000e+00   0.000000e+00   0.000000e+00      0s

Solved in 0 iterations and 0.00 seconds
Optimal objective  4.000000000e+00

Gurobi 7.0.2 (linux64, Python) logging started Fri Jul 28 13:12:36 2017

Optimize a model with 3 rows, 3 columns and 3 nonzeros
Coefficient statistics:
  Matrix range     [1e+00, 1e+00]
  Objective range  [1e+00, 1e+00]
  Bounds range     [0e+00, 0e+00]
  RHS range        [2e+00, 2e+00]
Presolve removed 3 rows and 3 columns
Presolve time: 0.00s
Presolve: All rows and columns removed
Iteration    Objective       Primal Inf.    Dual Inf.      Time
       0    4.0000000e+00   0.000000e+00   0.000000e+00      0s

Solved in 0 iterations and 0.00 seconds
Optimal objective  4.000000000e+00

Gurobi 7.0.2 (linux64, Python) logging started Fri Jul 28 13:21:57 2017

Optimize a model with 3 rows, 3 columns and 3 nonzeros
Coefficient statistics:
  Matrix range     [1e+00, 1e+00]
  Objective range  [1e+00, 1e+00]
  Bounds range     [0e+00, 0e+00]
  RHS range        [2e+00, 2e+00]
Presolve removed 3 rows and 3 columns
Presolve time: 0.00s
Presolve: All rows and columns removed
Iteration    Objective       Primal Inf.    Dual Inf.      Time
       0    4.0000000e+00   0.000000e+00   0.000000e+00      0s

Solved in 0 iterations and 0.00 seconds
Optimal objective  4.000000000e+00

Gurobi 7.0.2 (linux64, Python) logging started Fri Jul 28 16:07:19 2017

Optimize a model with 3 rows, 3 columns and 3 nonzeros
Coefficient statistics:
  Matrix range     [1e+00, 1e+00]
  Objective range  [1e+00, 1e+00]
  Bounds range     [0e+00, 0e+00]
  RHS range        [2e+00, 2e+00]
Presolve removed 3 rows and 3 columns
Presolve time: 0.00s
Presolve: All rows and columns removed
Iteration    Objective       Primal Inf.    Dual Inf.      Time
       0    4.0000000e+00   0.000000e+00   0.000000e+00      0s

Solved in 0 iterations and 0.00 seconds
Optimal objective  4.000000000e+00

Gurobi 7.0.2 (linux64, Python) logging started Mon Jul 31 14:56:00 2017

Optimize a model with 3 rows, 3 columns and 3 nonzeros
Coefficient statistics:
  Matrix range     [1e+00, 1e+00]
  Objective range  [1e+00, 1e+00]
  Bounds range     [0e+00, 0e+00]
  RHS range        [2e+00, 2e+00]
Presolve removed 3 rows and 3 columns
Presolve time: 0.00s
Presolve: All rows and columns removed
Iteration    Objective       Primal Inf.    Dual Inf.      Time
       0    4.0000000e+00   0.000000e+00   0.000000e+00      0s

Solved in 0 iterations and 0.00 seconds
Optimal objective  4.000000000e+00

Gurobi 7.0.2 (linux64, Python) logging started Mon Jul 31 15:02:08 2017


Gurobi 7.0.2 (linux64, Python) logging started Mon Jul 31 15:58:08 2017

Optimize a model with 3 rows, 3 columns and 3 nonzeros
Coefficient statistics:
  Matrix range     [1e+00, 1e+00]
  Objective range  [1e+00, 1e+00]
  Bounds range     [0e+00, 0e+00]
  RHS range        [2e+00, 2e+00]
Presolve removed 3 rows and 3 columns
Presolve time: 0.00s
Presolve: All rows and columns removed
Iteration    Objective       Primal Inf.    Dual Inf.      Time
       0    4.0000000e+00   0.000000e+00   0.000000e+00      0s

Solved in 0 iterations and 0.00 seconds
Optimal objective  4.000000000e+00

Gurobi 7.0.2 (linux64, Python) logging started Mon Jul 31 17:55:47 2017


Gurobi 7.0.2 (linux64, Python) logging started Mon Jul 31 17:56:06 2017


Gurobi 7.0.2 (linux64, Python) logging started Mon Jul 31 17:57:09 2017


Gurobi 7.0.2 (linux64, Python) logging started Mon Jul 31 17:59:48 2017


Gurobi 7.0.2 (linux64, Python) logging started Mon Jul 31 18:03:03 2017


Gurobi 7.0.2 (linux64, Python) logging started Mon Aug 28 14:45:15 2017


Gurobi 7.0.2 (linux64, Python) logging started Mon Aug 28 14:46:08 2017


Gurobi 7.0.2 (linux64, Python) logging started Mon Aug 28 14:46:19 2017


Gurobi 7.0.2 (linux64, Python) logging started Mon Aug 28 14:46:40 2017


Gurobi 7.0.2 (linux64, Python) logging started Tue Aug 29 21:57:28 2017

